\ LP format - for model browsing. Use MPS format to capture full model detail.
Maximize
obj:   x[1] + x[133] + x[102] + x[93] + x[73] + x[10] + x[11] + x[142] + x[15]
   + x[114] + x[74] + x[21] + x[22] + x[58] + x[127] + x[28] + x[125]
   + x[126] + x[37] + x[2] + x[33] + x[35] + x[4] + x[5] + x[135] + x[141]
   + x[111] + x[113] + x[116] + x[57] + x[91] + x[92] + x[134] + x[3]
   + x[32] + x[70] + x[80] + x[9] + x[42] + x[112] + x[84] + x[30] + x[56]
   + x[94] + x[64] + x[75] + x[130] + x[25] + x[124] + x[98] + x[99]
   + x[101] + x[146] + x[104] + x[105] + x[140] + x[77] + x[49] + x[18]
   + x[123] + x[53] + x[89] + x[47] + x[62] + x[6] + x[103] + x[108]
   + x[13] + x[14] + x[45] + x[48] + x[95] + x[7] + x[65] + x[72] + x[43]
   + x[61] + x[8] + x[137] + x[139] + x[82] + x[54] + x[55] + x[31] + x[69]
   + x[44] + x[50] + x[118] + x[87] + x[26] + x[97] + x[23] + x[107]
   + x[109] + x[46] + x[19] + x[78] + x[12] + x[66] + x[150] + x[39]
   + x[79] + x[144] + x[115] + x[119] + x[122] + x[100] + x[110] + x[145]
   + x[83] + x[60] + x[36] + x[17] + x[20] + x[88] + x[106] + x[120]
   + x[59] + x[16] + x[68] + x[129] + x[76] + x[86] + x[27] + x[138]
   + x[63] + x[121] + x[143] + x[81] + x[24] + x[117] + x[52] + x[34]
   + x[136] + x[71] + x[96] + x[148] + x[40] + x[29] + x[85] + x[41]
   + x[128] + x[147] + x[67] + x[149] + x[90] + x[132] + x[38] + x[51]
   + x[131]
Subject To
 edge1: x[1] + x[133] <= 1
 edge2: x[1] + x[102] <= 1
 edge3: x[1] + x[93] <= 1
 edge4: x[1] + x[73] <= 1
 edge5: x[1] + x[10] <= 1
 edge6: x[1] + x[11] <= 1
 edge7: x[1] + x[142] <= 1
 edge8: x[1] + x[15] <= 1
 edge9: x[1] + x[114] <= 1
 edge10: x[1] + x[74] <= 1
 edge11: x[1] + x[21] <= 1
 edge12: x[1] + x[22] <= 1
 edge13: x[1] + x[58] <= 1
 edge14: x[1] + x[127] <= 1
 edge15: x[1] + x[28] <= 1
 edge16: x[1] + x[125] <= 1
 edge17: x[1] + x[126] <= 1
 edge18: x[1] + x[37] <= 1
 edge19: x[133] + x[13] <= 1
 edge20: x[133] + x[14] <= 1
 edge21: x[133] + x[20] <= 1
 edge22: x[133] + x[27] <= 1
 edge23: x[133] + x[30] <= 1
 edge24: x[133] + x[31] <= 1
 edge25: x[133] + x[49] <= 1
 edge26: x[133] + x[51] <= 1
 edge27: x[133] + x[64] <= 1
 edge28: x[133] + x[68] <= 1
 edge29: x[133] + x[73] <= 1
 edge30: x[133] + x[78] <= 1
 edge31: x[133] + x[87] <= 1
 edge32: x[133] + x[92] <= 1
 edge33: x[133] + x[104] <= 1
 edge34: x[133] + x[108] <= 1
 edge35: x[133] + x[124] <= 1
 edge36: x[133] + x[141] <= 1
 edge37: x[102] + x[2] <= 1
 edge38: x[102] + x[6] <= 1
 edge39: x[102] + x[11] <= 1
 edge40: x[102] + x[16] <= 1
 edge41: x[102] + x[17] <= 1
 edge42: x[102] + x[20] <= 1
 edge43: x[102] + x[47] <= 1
 edge44: x[102] + x[85] <= 1
 edge45: x[102] + x[88] <= 1
 edge46: x[102] + x[100] <= 1
 edge47: x[102] + x[131] <= 1
 edge48: x[102] + x[146] <= 1
 edge49: x[102] + x[107] <= 1
 edge50: x[93] + x[23] <= 1
 edge51: x[93] + x[24] <= 1
 edge52: x[93] + x[27] <= 1
 edge53: x[93] + x[29] <= 1
 edge54: x[93] + x[37] <= 1
 edge55: x[93] + x[42] <= 1
 edge56: x[93] + x[49] <= 1
 edge57: x[93] + x[62] <= 1
 edge58: x[93] + x[74] <= 1
 edge59: x[93] + x[82] <= 1
 edge60: x[93] + x[86] <= 1
 edge61: x[93] + x[99] <= 1
 edge62: x[93] + x[105] <= 1
 edge63: x[93] + x[108] <= 1
 edge64: x[93] + x[109] <= 1
 edge65: x[93] + x[141] <= 1
 edge66: x[93] + x[106] <= 1
 edge67: x[93] + x[149] <= 1
 edge68: x[73] + x[16] <= 1
 edge69: x[73] + x[18] <= 1
 edge70: x[73] + x[19] <= 1
 edge71: x[73] + x[26] <= 1
 edge72: x[73] + x[49] <= 1
 edge73: x[73] + x[50] <= 1
 edge74: x[73] + x[128] <= 1
 edge75: x[73] + x[131] <= 1
 edge76: x[73] + x[112] <= 1
 edge77: x[73] + x[81] <= 1
 edge78: x[73] + x[104] <= 1
 edge79: x[73] + x[137] <= 1
 edge80: x[73] + x[74] <= 1
 edge81: x[73] + x[139] <= 1
 edge82: x[73] + x[140] <= 1
 edge83: x[73] + x[78] <= 1
 edge84: x[73] + x[136] <= 1
 edge85: x[10] + x[32] <= 1
 edge86: x[10] + x[97] <= 1
 edge87: x[10] + x[118] <= 1
 edge88: x[10] + x[103] <= 1
 edge89: x[10] + x[105] <= 1
 edge90: x[10] + x[75] <= 1
 edge91: x[10] + x[44] <= 1
 edge92: x[10] + x[54] <= 1
 edge93: x[10] + x[23] <= 1
 edge94: x[10] + x[25] <= 1
 edge95: x[10] + x[92] <= 1
 edge96: x[10] + x[126] <= 1
 edge97: x[11] + x[6] <= 1
 edge98: x[11] + x[32] <= 1
 edge99: x[11] + x[135] <= 1
 edge100: x[11] + x[104] <= 1
 edge101: x[11] + x[95] <= 1
 edge102: x[11] + x[107] <= 1
 edge103: x[11] + x[109] <= 1
 edge104: x[11] + x[46] <= 1
 edge105: x[11] + x[45] <= 1
 edge106: x[11] + x[82] <= 1
 edge107: x[11] + x[19] <= 1
 edge108: x[11] + x[78] <= 1
 edge109: x[11] + x[54] <= 1
 edge110: x[11] + x[58] <= 1
 edge111: x[11] + x[111] <= 1
 edge112: x[11] + x[70] <= 1
 edge113: x[11] + x[126] <= 1
 edge114: x[11] + x[127] <= 1
 edge115: x[142] + x[8] <= 1
 edge116: x[142] + x[21] <= 1
 edge117: x[142] + x[48] <= 1
 edge118: x[142] + x[50] <= 1
 edge119: x[142] + x[56] <= 1
 edge120: x[142] + x[58] <= 1
 edge121: x[142] + x[60] <= 1
 edge122: x[142] + x[63] <= 1
 edge123: x[142] + x[65] <= 1
 edge124: x[142] + x[72] <= 1
 edge125: x[142] + x[74] <= 1
 edge126: x[142] + x[101] <= 1
 edge127: x[142] + x[114] <= 1
 edge128: x[142] + x[115] <= 1
 edge129: x[142] + x[120] <= 1
 edge130: x[142] + x[139] <= 1
 edge131: x[15] + x[64] <= 1
 edge132: x[15] + x[37] <= 1
 edge133: x[15] + x[17] <= 1
 edge134: x[15] + x[120] <= 1
 edge135: x[15] + x[59] <= 1
 edge136: x[15] + x[30] <= 1
 edge137: x[15] + x[127] <= 1
 edge138: x[114] + x[12] <= 1
 edge139: x[114] + x[13] <= 1
 edge140: x[114] + x[24] <= 1
 edge141: x[114] + x[40] <= 1
 edge142: x[114] + x[47] <= 1
 edge143: x[114] + x[57] <= 1
 edge144: x[114] + x[59] <= 1
 edge145: x[114] + x[95] <= 1
 edge146: x[114] + x[101] <= 1
 edge147: x[114] + x[138] <= 1
 edge148: x[114] + x[115] <= 1
 edge149: x[114] + x[121] <= 1
 edge150: x[74] + x[2] <= 1
 edge151: x[74] + x[14] <= 1
 edge152: x[74] + x[17] <= 1
 edge153: x[74] + x[18] <= 1
 edge154: x[74] + x[52] <= 1
 edge155: x[74] + x[131] <= 1
 edge156: x[74] + x[132] <= 1
 edge157: x[74] + x[144] <= 1
 edge158: x[74] + x[78] <= 1
 edge159: x[74] + x[90] <= 1
 edge160: x[21] + x[8] <= 1
 edge161: x[21] + x[12] <= 1
 edge162: x[21] + x[14] <= 1
 edge163: x[21] + x[96] <= 1
 edge164: x[21] + x[134] <= 1
 edge165: x[21] + x[64] <= 1
 edge166: x[21] + x[80] <= 1
 edge167: x[21] + x[47] <= 1
 edge168: x[21] + x[48] <= 1
 edge169: x[21] + x[145] <= 1
 edge170: x[21] + x[146] <= 1
 edge171: x[21] + x[148] <= 1
 edge172: x[21] + x[40] <= 1
 edge173: x[21] + x[89] <= 1
 edge174: x[21] + x[143] <= 1
 edge175: x[21] + x[29] <= 1
 edge176: x[21] + x[30] <= 1
 edge177: x[22] + x[2] <= 1
 edge178: x[22] + x[98] <= 1
 edge179: x[22] + x[43] <= 1
 edge180: x[22] + x[44] <= 1
 edge181: x[22] + x[66] <= 1
 edge182: x[22] + x[46] <= 1
 edge183: x[22] + x[47] <= 1
 edge184: x[22] + x[144] <= 1
 edge185: x[22] + x[49] <= 1
 edge186: x[22] + x[85] <= 1
 edge187: x[22] + x[119] <= 1
 edge188: x[22] + x[120] <= 1
 edge189: x[22] + x[126] <= 1
 edge190: x[58] + x[28] <= 1
 edge191: x[58] + x[45] <= 1
 edge192: x[58] + x[98] <= 1
 edge193: x[58] + x[139] <= 1
 edge194: x[58] + x[92] <= 1
 edge195: x[58] + x[95] <= 1
 edge196: x[58] + x[110] <= 1
 edge197: x[58] + x[91] <= 1
 edge198: x[58] + x[127] <= 1
 edge199: x[127] + x[18] <= 1
 edge200: x[127] + x[23] <= 1
 edge201: x[127] + x[36] <= 1
 edge202: x[127] + x[37] <= 1
 edge203: x[127] + x[45] <= 1
 edge204: x[127] + x[71] <= 1
 edge205: x[127] + x[88] <= 1
 edge206: x[127] + x[96] <= 1
 edge207: x[127] + x[109] <= 1
 edge208: x[127] + x[117] <= 1
 edge209: x[127] + x[120] <= 1
 edge210: x[127] + x[121] <= 1
 edge211: x[127] + x[125] <= 1
 edge212: x[127] + x[138] <= 1
 edge213: x[127] + x[141] <= 1
 edge214: x[28] + x[3] <= 1
 edge215: x[28] + x[4] <= 1
 edge216: x[28] + x[104] <= 1
 edge217: x[28] + x[42] <= 1
 edge218: x[28] + x[43] <= 1
 edge219: x[28] + x[77] <= 1
 edge220: x[28] + x[144] <= 1
 edge221: x[28] + x[139] <= 1
 edge222: x[28] + x[119] <= 1
 edge223: x[28] + x[122] <= 1
 edge224: x[125] + x[25] <= 1
 edge225: x[125] + x[26] <= 1
 edge226: x[125] + x[31] <= 1
 edge227: x[125] + x[33] <= 1
 edge228: x[125] + x[38] <= 1
 edge229: x[125] + x[41] <= 1
 edge230: x[125] + x[43] <= 1
 edge231: x[125] + x[84] <= 1
 edge232: x[125] + x[85] <= 1
 edge233: x[125] + x[90] <= 1
 edge234: x[125] + x[103] <= 1
 edge235: x[125] + x[124] <= 1
 edge236: x[125] + x[140] <= 1
 edge237: x[125] + x[144] <= 1
 edge238: x[126] + x[17] <= 1
 edge239: x[126] + x[51] <= 1
 edge240: x[126] + x[53] <= 1
 edge241: x[126] + x[56] <= 1
 edge242: x[126] + x[63] <= 1
 edge243: x[126] + x[91] <= 1
 edge244: x[126] + x[95] <= 1
 edge245: x[126] + x[96] <= 1
 edge246: x[126] + x[136] <= 1
 edge247: x[126] + x[141] <= 1
 edge248: x[126] + x[148] <= 1
 edge249: x[37] + x[26] <= 1
 edge250: x[37] + x[30] <= 1
 edge251: x[37] + x[128] <= 1
 edge252: x[37] + x[61] <= 1
 edge253: x[37] + x[90] <= 1
 edge254: x[37] + x[65] <= 1
 edge255: x[37] + x[39] <= 1
 edge256: x[37] + x[136] <= 1
 edge257: x[37] + x[105] <= 1
 edge258: x[37] + x[42] <= 1
 edge259: x[37] + x[45] <= 1
 edge260: x[37] + x[77] <= 1
 edge261: x[37] + x[48] <= 1
 edge262: x[37] + x[144] <= 1
 edge263: x[37] + x[148] <= 1
 edge264: x[37] + x[149] <= 1
 edge265: x[37] + x[120] <= 1
 edge266: x[2] + x[33] <= 1
 edge267: x[2] + x[35] <= 1
 edge268: x[2] + x[4] <= 1
 edge269: x[2] + x[5] <= 1
 edge270: x[2] + x[135] <= 1
 edge271: x[2] + x[141] <= 1
 edge272: x[2] + x[111] <= 1
 edge273: x[2] + x[113] <= 1
 edge274: x[2] + x[116] <= 1
 edge275: x[2] + x[57] <= 1
 edge276: x[2] + x[91] <= 1
 edge277: x[2] + x[92] <= 1
 edge278: x[2] + x[134] <= 1
 edge279: x[33] + x[3] <= 1
 edge280: x[33] + x[19] <= 1
 edge281: x[33] + x[20] <= 1
 edge282: x[33] + x[30] <= 1
 edge283: x[33] + x[64] <= 1
 edge284: x[33] + x[147] <= 1
 edge285: x[33] + x[69] <= 1
 edge286: x[33] + x[140] <= 1
 edge287: x[33] + x[34] <= 1
 edge288: x[33] + x[77] <= 1
 edge289: x[33] + x[115] <= 1
 edge290: x[33] + x[117] <= 1
 edge291: x[33] + x[54] <= 1
 edge292: x[33] + x[120] <= 1
 edge293: x[33] + x[57] <= 1
 edge294: x[33] + x[111] <= 1
 edge295: x[35] + x[8] <= 1
 edge296: x[35] + x[9] <= 1
 edge297: x[35] + x[12] <= 1
 edge298: x[35] + x[14] <= 1
 edge299: x[35] + x[16] <= 1
 edge300: x[35] + x[24] <= 1
 edge301: x[35] + x[30] <= 1
 edge302: x[35] + x[64] <= 1
 edge303: x[35] + x[65] <= 1
 edge304: x[35] + x[112] <= 1
 edge305: x[35] + x[39] <= 1
 edge306: x[35] + x[138] <= 1
 edge307: x[35] + x[45] <= 1
 edge308: x[35] + x[130] <= 1
 edge309: x[35] + x[44] <= 1
 edge310: x[35] + x[40] <= 1
 edge311: x[35] + x[82] <= 1
 edge312: x[35] + x[83] <= 1
 edge313: x[4] + x[64] <= 1
 edge314: x[4] + x[92] <= 1
 edge315: x[4] + x[75] <= 1
 edge316: x[4] + x[130] <= 1
 edge317: x[4] + x[141] <= 1
 edge318: x[4] + x[25] <= 1
 edge319: x[4] + x[124] <= 1
 edge320: x[5] + x[98] <= 1
 edge321: x[5] + x[99] <= 1
 edge322: x[5] + x[101] <= 1
 edge323: x[5] + x[146] <= 1
 edge324: x[5] + x[104] <= 1
 edge325: x[5] + x[105] <= 1
 edge326: x[5] + x[140] <= 1
 edge327: x[5] + x[77] <= 1
 edge328: x[5] + x[141] <= 1
 edge329: x[5] + x[49] <= 1
 edge330: x[5] + x[18] <= 1
 edge331: x[5] + x[123] <= 1
 edge332: x[5] + x[116] <= 1
 edge333: x[5] + x[53] <= 1
 edge334: x[5] + x[89] <= 1
 edge335: x[5] + x[47] <= 1
 edge336: x[5] + x[92] <= 1
 edge337: x[5] + x[62] <= 1
 edge338: x[135] + x[6] <= 1
 edge339: x[135] + x[17] <= 1
 edge340: x[135] + x[25] <= 1
 edge341: x[135] + x[31] <= 1
 edge342: x[135] + x[44] <= 1
 edge343: x[135] + x[67] <= 1
 edge344: x[135] + x[71] <= 1
 edge345: x[135] + x[80] <= 1
 edge346: x[135] + x[82] <= 1
 edge347: x[135] + x[100] <= 1
 edge348: x[135] + x[104] <= 1
 edge349: x[135] + x[109] <= 1
 edge350: x[141] + x[3] <= 1
 edge351: x[141] + x[6] <= 1
 edge352: x[141] + x[8] <= 1
 edge353: x[141] + x[50] <= 1
 edge354: x[141] + x[53] <= 1
 edge355: x[141] + x[62] <= 1
 edge356: x[141] + x[80] <= 1
 edge357: x[141] + x[86] <= 1
 edge358: x[141] + x[94] <= 1
 edge359: x[141] + x[96] <= 1
 edge360: x[141] + x[101] <= 1
 edge361: x[141] + x[105] <= 1
 edge362: x[141] + x[107] <= 1
 edge363: x[141] + x[130] <= 1
 edge364: x[141] + x[137] <= 1
 edge365: x[141] + x[140] <= 1
 edge366: x[141] + x[144] <= 1
 edge367: x[111] + x[3] <= 1
 edge368: x[111] + x[18] <= 1
 edge369: x[111] + x[39] <= 1
 edge370: x[111] + x[41] <= 1
 edge371: x[111] + x[48] <= 1
 edge372: x[111] + x[52] <= 1
 edge373: x[111] + x[62] <= 1
 edge374: x[111] + x[63] <= 1
 edge375: x[111] + x[65] <= 1
 edge376: x[111] + x[68] <= 1
 edge377: x[111] + x[72] <= 1
 edge378: x[111] + x[86] <= 1
 edge379: x[111] + x[90] <= 1
 edge380: x[111] + x[94] <= 1
 edge381: x[111] + x[95] <= 1
 edge382: x[111] + x[96] <= 1
 edge383: x[111] + x[137] <= 1
 edge384: x[111] + x[115] <= 1
 edge385: x[111] + x[116] <= 1
 edge386: x[111] + x[118] <= 1
 edge387: x[111] + x[120] <= 1
 edge388: x[113] + x[12] <= 1
 edge389: x[113] + x[13] <= 1
 edge390: x[113] + x[20] <= 1
 edge391: x[113] + x[30] <= 1
 edge392: x[113] + x[42] <= 1
 edge393: x[113] + x[89] <= 1
 edge394: x[113] + x[101] <= 1
 edge395: x[113] + x[108] <= 1
 edge396: x[113] + x[131] <= 1
 edge397: x[113] + x[149] <= 1
 edge398: x[113] + x[150] <= 1
 edge399: x[113] + x[120] <= 1
 edge400: x[116] + x[7] <= 1
 edge401: x[116] + x[31] <= 1
 edge402: x[116] + x[34] <= 1
 edge403: x[116] + x[39] <= 1
 edge404: x[116] + x[49] <= 1
 edge405: x[116] + x[52] <= 1
 edge406: x[116] + x[57] <= 1
 edge407: x[116] + x[101] <= 1
 edge408: x[116] + x[108] <= 1
 edge409: x[116] + x[134] <= 1
 edge410: x[116] + x[138] <= 1
 edge411: x[57] + x[17] <= 1
 edge412: x[57] + x[48] <= 1
 edge413: x[57] + x[53] <= 1
 edge414: x[57] + x[54] <= 1
 edge415: x[57] + x[68] <= 1
 edge416: x[57] + x[81] <= 1
 edge417: x[57] + x[71] <= 1
 edge418: x[57] + x[75] <= 1
 edge419: x[57] + x[130] <= 1
 edge420: x[57] + x[79] <= 1
 edge421: x[57] + x[88] <= 1
 edge422: x[91] + x[34] <= 1
 edge423: x[91] + x[45] <= 1
 edge424: x[91] + x[53] <= 1
 edge425: x[91] + x[62] <= 1
 edge426: x[91] + x[65] <= 1
 edge427: x[91] + x[77] <= 1
 edge428: x[91] + x[83] <= 1
 edge429: x[91] + x[138] <= 1
 edge430: x[91] + x[112] <= 1
 edge431: x[91] + x[145] <= 1
 edge432: x[92] + x[7] <= 1
 edge433: x[92] + x[23] <= 1
 edge434: x[92] + x[50] <= 1
 edge435: x[92] + x[52] <= 1
 edge436: x[92] + x[54] <= 1
 edge437: x[92] + x[60] <= 1
 edge438: x[92] + x[67] <= 1
 edge439: x[92] + x[87] <= 1
 edge440: x[92] + x[88] <= 1
 edge441: x[92] + x[149] <= 1
 edge442: x[92] + x[137] <= 1
 edge443: x[92] + x[101] <= 1
 edge444: x[92] + x[143] <= 1
 edge445: x[92] + x[107] <= 1
 edge446: x[92] + x[131] <= 1
 edge447: x[134] + x[3] <= 1
 edge448: x[134] + x[23] <= 1
 edge449: x[134] + x[27] <= 1
 edge450: x[134] + x[51] <= 1
 edge451: x[134] + x[55] <= 1
 edge452: x[134] + x[65] <= 1
 edge453: x[134] + x[86] <= 1
 edge454: x[134] + x[96] <= 1
 edge455: x[134] + x[98] <= 1
 edge456: x[134] + x[110] <= 1
 edge457: x[134] + x[115] <= 1
 edge458: x[134] + x[118] <= 1
 edge459: x[134] + x[123] <= 1
 edge460: x[134] + x[131] <= 1
 edge461: x[3] + x[32] <= 1
 edge462: x[3] + x[70] <= 1
 edge463: x[3] + x[80] <= 1
 edge464: x[3] + x[9] <= 1
 edge465: x[3] + x[42] <= 1
 edge466: x[3] + x[112] <= 1
 edge467: x[3] + x[84] <= 1
 edge468: x[3] + x[30] <= 1
 edge469: x[3] + x[56] <= 1
 edge470: x[3] + x[94] <= 1
 edge471: x[32] + x[8] <= 1
 edge472: x[32] + x[17] <= 1
 edge473: x[32] + x[20] <= 1
 edge474: x[32] + x[99] <= 1
 edge475: x[32] + x[147] <= 1
 edge476: x[32] + x[53] <= 1
 edge477: x[32] + x[115] <= 1
 edge478: x[32] + x[40] <= 1
 edge479: x[32] + x[120] <= 1
 edge480: x[32] + x[121] <= 1
 edge481: x[32] + x[122] <= 1
 edge482: x[32] + x[95] <= 1
 edge483: x[70] + x[9] <= 1
 edge484: x[70] + x[13] <= 1
 edge485: x[70] + x[47] <= 1
 edge486: x[70] + x[53] <= 1
 edge487: x[70] + x[61] <= 1
 edge488: x[70] + x[98] <= 1
 edge489: x[70] + x[115] <= 1
 edge490: x[70] + x[86] <= 1
 edge491: x[70] + x[83] <= 1
 edge492: x[80] + x[9] <= 1
 edge493: x[80] + x[45] <= 1
 edge494: x[80] + x[56] <= 1
 edge495: x[80] + x[65] <= 1
 edge496: x[80] + x[68] <= 1
 edge497: x[80] + x[76] <= 1
 edge498: x[80] + x[96] <= 1
 edge499: x[80] + x[82] <= 1
 edge500: x[80] + x[112] <= 1
 edge501: x[80] + x[81] <= 1
 edge502: x[80] + x[146] <= 1
 edge503: x[80] + x[122] <= 1
 edge504: x[80] + x[90] <= 1
 edge505: x[80] + x[149] <= 1
 edge506: x[9] + x[6] <= 1
 edge507: x[9] + x[8] <= 1
 edge508: x[9] + x[69] <= 1
 edge509: x[9] + x[44] <= 1
 edge510: x[9] + x[50] <= 1
 edge511: x[9] + x[118] <= 1
 edge512: x[9] + x[87] <= 1
 edge513: x[9] + x[26] <= 1
 edge514: x[42] + x[8] <= 1
 edge515: x[42] + x[16] <= 1
 edge516: x[42] + x[96] <= 1
 edge517: x[42] + x[65] <= 1
 edge518: x[42] + x[83] <= 1
 edge519: x[42] + x[132] <= 1
 edge520: x[42] + x[82] <= 1
 edge521: x[42] + x[146] <= 1
 edge522: x[42] + x[67] <= 1
 edge523: x[42] + x[86] <= 1
 edge524: x[42] + x[95] <= 1
 edge525: x[112] + x[20] <= 1
 edge526: x[112] + x[76] <= 1
 edge527: x[112] + x[101] <= 1
 edge528: x[112] + x[128] <= 1
 edge529: x[84] + x[12] <= 1
 edge530: x[84] + x[19] <= 1
 edge531: x[84] + x[64] <= 1
 edge532: x[84] + x[71] <= 1
 edge533: x[84] + x[79] <= 1
 edge534: x[84] + x[81] <= 1
 edge535: x[84] + x[132] <= 1
 edge536: x[84] + x[140] <= 1
 edge537: x[84] + x[123] <= 1
 edge538: x[30] + x[34] <= 1
 edge539: x[30] + x[36] <= 1
 edge540: x[30] + x[71] <= 1
 edge541: x[30] + x[40] <= 1
 edge542: x[30] + x[137] <= 1
 edge543: x[30] + x[75] <= 1
 edge544: x[30] + x[60] <= 1
 edge545: x[30] + x[98] <= 1
 edge546: x[30] + x[54] <= 1
 edge547: x[30] + x[136] <= 1
 edge548: x[30] + x[117] <= 1
 edge549: x[56] + x[26] <= 1
 edge550: x[56] + x[34] <= 1
 edge551: x[56] + x[40] <= 1
 edge552: x[56] + x[47] <= 1
 edge553: x[56] + x[97] <= 1
 edge554: x[56] + x[139] <= 1
 edge555: x[56] + x[98] <= 1
 edge556: x[56] + x[77] <= 1
 edge557: x[56] + x[145] <= 1
 edge558: x[56] + x[78] <= 1
 edge559: x[56] + x[86] <= 1
 edge560: x[56] + x[110] <= 1
 edge561: x[56] + x[88] <= 1
 edge562: x[56] + x[61] <= 1
 edge563: x[56] + x[124] <= 1
 edge564: x[56] + x[90] <= 1
 edge565: x[56] + x[63] <= 1
 edge566: x[94] + x[6] <= 1
 edge567: x[94] + x[17] <= 1
 edge568: x[94] + x[18] <= 1
 edge569: x[94] + x[20] <= 1
 edge570: x[94] + x[25] <= 1
 edge571: x[94] + x[39] <= 1
 edge572: x[94] + x[49] <= 1
 edge573: x[94] + x[51] <= 1
 edge574: x[94] + x[53] <= 1
 edge575: x[94] + x[54] <= 1
 edge576: x[94] + x[87] <= 1
 edge577: x[94] + x[89] <= 1
 edge578: x[94] + x[96] <= 1
 edge579: x[94] + x[97] <= 1
 edge580: x[94] + x[100] <= 1
 edge581: x[94] + x[137] <= 1
 edge582: x[94] + x[106] <= 1
 edge583: x[94] + x[110] <= 1
 edge584: x[64] + x[34] <= 1
 edge585: x[64] + x[45] <= 1
 edge586: x[64] + x[46] <= 1
 edge587: x[64] + x[52] <= 1
 edge588: x[64] + x[65] <= 1
 edge589: x[64] + x[105] <= 1
 edge590: x[64] + x[66] <= 1
 edge591: x[64] + x[115] <= 1
 edge592: x[64] + x[87] <= 1
 edge593: x[64] + x[143] <= 1
 edge594: x[64] + x[95] <= 1
 edge595: x[75] + x[23] <= 1
 edge596: x[75] + x[31] <= 1
 edge597: x[75] + x[34] <= 1
 edge598: x[75] + x[39] <= 1
 edge599: x[75] + x[104] <= 1
 edge600: x[75] + x[140] <= 1
 edge601: x[75] + x[109] <= 1
 edge602: x[75] + x[117] <= 1
 edge603: x[75] + x[138] <= 1
 edge604: x[75] + x[120] <= 1
 edge605: x[75] + x[106] <= 1
 edge606: x[130] + x[24] <= 1
 edge607: x[130] + x[38] <= 1
 edge608: x[130] + x[40] <= 1
 edge609: x[130] + x[44] <= 1
 edge610: x[130] + x[78] <= 1
 edge611: x[130] + x[88] <= 1
 edge612: x[130] + x[98] <= 1
 edge613: x[130] + x[117] <= 1
 edge614: x[130] + x[121] <= 1
 edge615: x[130] + x[137] <= 1
 edge616: x[25] + x[14] <= 1
 edge617: x[25] + x[139] <= 1
 edge618: x[25] + x[39] <= 1
 edge619: x[25] + x[72] <= 1
 edge620: x[25] + x[109] <= 1
 edge621: x[25] + x[53] <= 1
 edge622: x[25] + x[119] <= 1
 edge623: x[25] + x[88] <= 1
 edge624: x[25] + x[100] <= 1
 edge625: x[25] + x[31] <= 1
 edge626: x[124] + x[16] <= 1
 edge627: x[124] + x[27] <= 1
 edge628: x[124] + x[48] <= 1
 edge629: x[124] + x[71] <= 1
 edge630: x[124] + x[129] <= 1
 edge631: x[124] + x[144] <= 1
 edge632: x[98] + x[19] <= 1
 edge633: x[98] + x[24] <= 1
 edge634: x[98] + x[26] <= 1
 edge635: x[98] + x[39] <= 1
 edge636: x[98] + x[44] <= 1
 edge637: x[98] + x[59] <= 1
 edge638: x[98] + x[60] <= 1
 edge639: x[98] + x[66] <= 1
 edge640: x[98] + x[67] <= 1
 edge641: x[98] + x[79] <= 1
 edge642: x[98] + x[147] <= 1
 edge643: x[98] + x[104] <= 1
 edge644: x[98] + x[139] <= 1
 edge645: x[99] + x[43] <= 1
 edge646: x[99] + x[51] <= 1
 edge647: x[99] + x[72] <= 1
 edge648: x[99] + x[76] <= 1
 edge649: x[99] + x[86] <= 1
 edge650: x[99] + x[88] <= 1
 edge651: x[99] + x[144] <= 1
 edge652: x[101] + x[8] <= 1
 edge653: x[101] + x[16] <= 1
 edge654: x[101] + x[53] <= 1
 edge655: x[101] + x[61] <= 1
 edge656: x[101] + x[62] <= 1
 edge657: x[101] + x[71] <= 1
 edge658: x[101] + x[83] <= 1
 edge659: x[101] + x[90] <= 1
 edge660: x[101] + x[115] <= 1
 edge661: x[101] + x[108] <= 1
 edge662: x[101] + x[149] <= 1
 edge663: x[146] + x[14] <= 1
 edge664: x[146] + x[17] <= 1
 edge665: x[146] + x[23] <= 1
 edge666: x[146] + x[31] <= 1
 edge667: x[146] + x[52] <= 1
 edge668: x[146] + x[62] <= 1
 edge669: x[146] + x[95] <= 1
 edge670: x[146] + x[100] <= 1
 edge671: x[146] + x[119] <= 1
 edge672: x[146] + x[129] <= 1
 edge673: x[146] + x[143] <= 1
 edge674: x[104] + x[23] <= 1
 edge675: x[104] + x[27] <= 1
 edge676: x[104] + x[47] <= 1
 edge677: x[104] + x[60] <= 1
 edge678: x[104] + x[71] <= 1
 edge679: x[104] + x[88] <= 1
 edge680: x[104] + x[129] <= 1
 edge681: x[104] + x[143] <= 1
 edge682: x[104] + x[145] <= 1
 edge683: x[104] + x[121] <= 1
 edge684: x[104] + x[137] <= 1
 edge685: x[104] + x[150] <= 1
 edge686: x[105] + x[48] <= 1
 edge687: x[105] + x[82] <= 1
 edge688: x[105] + x[148] <= 1
 edge689: x[105] + x[150] <= 1
 edge690: x[105] + x[123] <= 1
 edge691: x[140] + x[13] <= 1
 edge692: x[140] + x[18] <= 1
 edge693: x[140] + x[23] <= 1
 edge694: x[140] + x[26] <= 1
 edge695: x[140] + x[43] <= 1
 edge696: x[140] + x[48] <= 1
 edge697: x[140] + x[52] <= 1
 edge698: x[140] + x[78] <= 1
 edge699: x[140] + x[86] <= 1
 edge700: x[140] + x[95] <= 1
 edge701: x[140] + x[100] <= 1
 edge702: x[140] + x[119] <= 1
 edge703: x[140] + x[149] <= 1
 edge704: x[77] + x[26] <= 1
 edge705: x[77] + x[46] <= 1
 edge706: x[77] + x[132] <= 1
 edge707: x[77] + x[137] <= 1
 edge708: x[77] + x[148] <= 1
 edge709: x[77] + x[117] <= 1
 edge710: x[77] + x[118] <= 1
 edge711: x[49] + x[8] <= 1
 edge712: x[49] + x[23] <= 1
 edge713: x[49] + x[46] <= 1
 edge714: x[49] + x[129] <= 1
 edge715: x[49] + x[68] <= 1
 edge716: x[49] + x[139] <= 1
 edge717: x[49] + x[108] <= 1
 edge718: x[49] + x[72] <= 1
 edge719: x[49] + x[100] <= 1
 edge720: x[49] + x[121] <= 1
 edge721: x[18] + x[66] <= 1
 edge722: x[18] + x[72] <= 1
 edge723: x[18] + x[139] <= 1
 edge724: x[18] + x[45] <= 1
 edge725: x[18] + x[63] <= 1
 edge726: x[18] + x[144] <= 1
 edge727: x[18] + x[55] <= 1
 edge728: x[18] + x[121] <= 1
 edge729: x[18] + x[122] <= 1
 edge730: x[18] + x[143] <= 1
 edge731: x[18] + x[69] <= 1
 edge732: x[123] + x[8] <= 1
 edge733: x[123] + x[12] <= 1
 edge734: x[123] + x[20] <= 1
 edge735: x[123] + x[27] <= 1
 edge736: x[123] + x[69] <= 1
 edge737: x[123] + x[78] <= 1
 edge738: x[123] + x[86] <= 1
 edge739: x[123] + x[96] <= 1
 edge740: x[123] + x[136] <= 1
 edge741: x[53] + x[19] <= 1
 edge742: x[53] + x[20] <= 1
 edge743: x[53] + x[29] <= 1
 edge744: x[53] + x[148] <= 1
 edge745: x[53] + x[83] <= 1
 edge746: x[53] + x[79] <= 1
 edge747: x[53] + x[143] <= 1
 edge748: x[89] + x[45] <= 1
 edge749: x[89] + x[52] <= 1
 edge750: x[89] + x[54] <= 1
 edge751: x[89] + x[67] <= 1
 edge752: x[89] + x[83] <= 1
 edge753: x[89] + x[88] <= 1
 edge754: x[89] + x[131] <= 1
 edge755: x[89] + x[107] <= 1
 edge756: x[89] + x[139] <= 1
 edge757: x[89] + x[149] <= 1
 edge758: x[47] + x[29] <= 1
 edge759: x[47] + x[36] <= 1
 edge760: x[47] + x[97] <= 1
 edge761: x[47] + x[106] <= 1
 edge762: x[47] + x[139] <= 1
 edge763: x[47] + x[143] <= 1
 edge764: x[47] + x[150] <= 1
 edge765: x[62] + x[6] <= 1
 edge766: x[62] + x[19] <= 1
 edge767: x[62] + x[44] <= 1
 edge768: x[62] + x[150] <= 1
 edge769: x[62] + x[88] <= 1
 edge770: x[6] + x[103] <= 1
 edge771: x[6] + x[108] <= 1
 edge772: x[6] + x[13] <= 1
 edge773: x[6] + x[14] <= 1
 edge774: x[6] + x[45] <= 1
 edge775: x[6] + x[48] <= 1
 edge776: x[6] + x[95] <= 1
 edge777: x[103] + x[41] <= 1
 edge778: x[103] + x[72] <= 1
 edge779: x[103] + x[85] <= 1
 edge780: x[103] + x[100] <= 1
 edge781: x[103] + x[108] <= 1
 edge782: x[103] + x[144] <= 1
 edge783: x[103] + x[115] <= 1
 edge784: x[103] + x[148] <= 1
 edge785: x[103] + x[150] <= 1
 edge786: x[108] + x[16] <= 1
 edge787: x[108] + x[20] <= 1
 edge788: x[108] + x[29] <= 1
 edge789: x[108] + x[55] <= 1
 edge790: x[108] + x[82] <= 1
 edge791: x[108] + x[88] <= 1
 edge792: x[13] + x[100] <= 1
 edge793: x[13] + x[110] <= 1
 edge794: x[13] + x[48] <= 1
 edge795: x[13] + x[145] <= 1
 edge796: x[13] + x[83] <= 1
 edge797: x[13] + x[60] <= 1
 edge798: x[13] + x[31] <= 1
 edge799: x[14] + x[36] <= 1
 edge800: x[14] + x[39] <= 1
 edge801: x[14] + x[109] <= 1
 edge802: x[14] + x[144] <= 1
 edge803: x[14] + x[17] <= 1
 edge804: x[14] + x[82] <= 1
 edge805: x[14] + x[20] <= 1
 edge806: x[14] + x[50] <= 1
 edge807: x[14] + x[88] <= 1
 edge808: x[14] + x[106] <= 1
 edge809: x[14] + x[95] <= 1
 edge810: x[45] + x[12] <= 1
 edge811: x[45] + x[29] <= 1
 edge812: x[45] + x[40] <= 1
 edge813: x[45] + x[65] <= 1
 edge814: x[45] + x[63] <= 1
 edge815: x[45] + x[109] <= 1
 edge816: x[45] + x[150] <= 1
 edge817: x[45] + x[87] <= 1
 edge818: x[45] + x[120] <= 1
 edge819: x[45] + x[121] <= 1
 edge820: x[48] + x[8] <= 1
 edge821: x[48] + x[36] <= 1
 edge822: x[48] + x[54] <= 1
 edge823: x[48] + x[55] <= 1
 edge824: x[48] + x[88] <= 1
 edge825: x[48] + x[121] <= 1
 edge826: x[48] + x[149] <= 1
 edge827: x[95] + x[12] <= 1
 edge828: x[95] + x[68] <= 1
 edge829: x[95] + x[76] <= 1
 edge830: x[95] + x[87] <= 1
 edge831: x[95] + x[129] <= 1
 edge832: x[95] + x[96] <= 1
 edge833: x[7] + x[65] <= 1
 edge834: x[7] + x[72] <= 1
 edge835: x[7] + x[43] <= 1
 edge836: x[7] + x[61] <= 1
 edge837: x[65] + x[43] <= 1
 edge838: x[65] + x[51] <= 1
 edge839: x[65] + x[55] <= 1
 edge840: x[65] + x[120] <= 1
 edge841: x[72] + x[26] <= 1
 edge842: x[72] + x[61] <= 1
 edge843: x[72] + x[129] <= 1
 edge844: x[72] + x[83] <= 1
 edge845: x[72] + x[131] <= 1
 edge846: x[72] + x[136] <= 1
 edge847: x[72] + x[107] <= 1
 edge848: x[72] + x[90] <= 1
 edge849: x[72] + x[147] <= 1
 edge850: x[43] + x[137] <= 1
 edge851: x[43] + x[107] <= 1
 edge852: x[43] + x[51] <= 1
 edge853: x[43] + x[85] <= 1
 edge854: x[43] + x[119] <= 1
 edge855: x[43] + x[63] <= 1
 edge856: x[43] + x[149] <= 1
 edge857: x[61] + x[26] <= 1
 edge858: x[61] + x[41] <= 1
 edge859: x[61] + x[51] <= 1
 edge860: x[61] + x[55] <= 1
 edge861: x[61] + x[83] <= 1
 edge862: x[61] + x[131] <= 1
 edge863: x[61] + x[68] <= 1
 edge864: x[61] + x[115] <= 1
 edge865: x[61] + x[81] <= 1
 edge866: x[61] + x[148] <= 1
 edge867: x[61] + x[122] <= 1
 edge868: x[8] + x[137] <= 1
 edge869: x[8] + x[139] <= 1
 edge870: x[8] + x[82] <= 1
 edge871: x[8] + x[54] <= 1
 edge872: x[8] + x[55] <= 1
 edge873: x[8] + x[31] <= 1
 edge874: x[137] + x[12] <= 1
 edge875: x[137] + x[46] <= 1
 edge876: x[137] + x[50] <= 1
 edge877: x[137] + x[100] <= 1
 edge878: x[137] + x[119] <= 1
 edge879: x[137] + x[120] <= 1
 edge880: x[137] + x[131] <= 1
 edge881: x[137] + x[147] <= 1
 edge882: x[139] + x[55] <= 1
 edge883: x[139] + x[59] <= 1
 edge884: x[139] + x[60] <= 1
 edge885: x[139] + x[67] <= 1
 edge886: x[139] + x[78] <= 1
 edge887: x[139] + x[85] <= 1
 edge888: x[139] + x[145] <= 1
 edge889: x[82] + x[52] <= 1
 edge890: x[82] + x[96] <= 1
 edge891: x[82] + x[129] <= 1
 edge892: x[82] + x[131] <= 1
 edge893: x[82] + x[87] <= 1
 edge894: x[54] + x[26] <= 1
 edge895: x[54] + x[52] <= 1
 edge896: x[54] + x[78] <= 1
 edge897: x[54] + x[81] <= 1
 edge898: x[54] + x[117] <= 1
 edge899: x[55] + x[17] <= 1
 edge900: x[55] + x[40] <= 1
 edge901: x[55] + x[67] <= 1
 edge902: x[55] + x[132] <= 1
 edge903: x[55] + x[138] <= 1
 edge904: x[55] + x[78] <= 1
 edge905: x[55] + x[131] <= 1
 edge906: x[55] + x[118] <= 1
 edge907: x[55] + x[60] <= 1
 edge908: x[31] + x[19] <= 1
 edge909: x[31] + x[68] <= 1
 edge910: x[31] + x[138] <= 1
 edge911: x[31] + x[110] <= 1
 edge912: x[31] + x[86] <= 1
 edge913: x[31] + x[90] <= 1
 edge914: x[69] + x[34] <= 1
 edge915: x[69] + x[128] <= 1
 edge916: x[69] + x[109] <= 1
 edge917: x[69] + x[81] <= 1
 edge918: x[69] + x[147] <= 1
 edge919: x[69] + x[150] <= 1
 edge920: x[44] + x[16] <= 1
 edge921: x[44] + x[83] <= 1
 edge922: x[44] + x[121] <= 1
 edge923: x[50] + x[36] <= 1
 edge924: x[50] + x[40] <= 1
 edge925: x[50] + x[119] <= 1
 edge926: x[50] + x[144] <= 1
 edge927: x[50] + x[145] <= 1
 edge928: x[50] + x[117] <= 1
 edge929: x[118] + x[12] <= 1
 edge930: x[118] + x[23] <= 1
 edge931: x[118] + x[60] <= 1
 edge932: x[118] + x[83] <= 1
 edge933: x[87] + x[19] <= 1
 edge934: x[87] + x[34] <= 1
 edge935: x[87] + x[67] <= 1
 edge936: x[87] + x[68] <= 1
 edge937: x[87] + x[78] <= 1
 edge938: x[87] + x[79] <= 1
 edge939: x[87] + x[129] <= 1
 edge940: x[87] + x[147] <= 1
 edge941: x[87] + x[100] <= 1
 edge942: x[87] + x[122] <= 1
 edge943: x[26] + x[19] <= 1
 edge944: x[26] + x[128] <= 1
 edge945: x[26] + x[147] <= 1
 edge946: x[26] + x[145] <= 1
 edge947: x[26] + x[85] <= 1
 edge948: x[26] + x[122] <= 1
 edge949: x[97] + x[12] <= 1
 edge950: x[97] + x[16] <= 1
 edge951: x[97] + x[29] <= 1
 edge952: x[97] + x[40] <= 1
 edge953: x[97] + x[83] <= 1
 edge954: x[23] + x[34] <= 1
 edge955: x[23] + x[86] <= 1
 edge956: x[23] + x[144] <= 1
 edge957: x[23] + x[148] <= 1
 edge958: x[23] + x[150] <= 1
 edge959: x[23] + x[24] <= 1
 edge960: x[107] + x[41] <= 1
 edge961: x[107] + x[100] <= 1
 edge962: x[107] + x[132] <= 1
 edge963: x[107] + x[143] <= 1
 edge964: x[107] + x[147] <= 1
 edge965: x[107] + x[117] <= 1
 edge966: x[109] + x[59] <= 1
 edge967: x[109] + x[85] <= 1
 edge968: x[109] + x[90] <= 1
 edge969: x[109] + x[143] <= 1
 edge970: x[109] + x[147] <= 1
 edge971: x[46] + x[20] <= 1
 edge972: x[46] + x[24] <= 1
 edge973: x[46] + x[78] <= 1
 edge974: x[46] + x[83] <= 1
 edge975: x[19] + x[68] <= 1
 edge976: x[19] + x[39] <= 1
 edge977: x[19] + x[145] <= 1
 edge978: x[19] + x[79] <= 1
 edge979: x[19] + x[144] <= 1
 edge980: x[19] + x[81] <= 1
 edge981: x[19] + x[24] <= 1
 edge982: x[19] + x[36] <= 1
 edge983: x[19] + x[117] <= 1
 edge984: x[19] + x[120] <= 1
 edge985: x[19] + x[52] <= 1
 edge986: x[78] + x[60] <= 1
 edge987: x[78] + x[85] <= 1
 edge988: x[12] + x[66] <= 1
 edge989: x[12] + x[150] <= 1
 edge990: x[12] + x[39] <= 1
 edge991: x[12] + x[79] <= 1
 edge992: x[12] + x[144] <= 1
 edge993: x[12] + x[115] <= 1
 edge994: x[12] + x[119] <= 1
 edge995: x[12] + x[122] <= 1
 edge996: x[66] + x[16] <= 1
 edge997: x[66] + x[24] <= 1
 edge998: x[66] + x[36] <= 1
 edge999: x[66] + x[41] <= 1
 edge1000: x[66] + x[67] <= 1
 edge1001: x[66] + x[136] <= 1
 edge1002: x[66] + x[83] <= 1
 edge1003: x[66] + x[143] <= 1
 edge1004: x[66] + x[131] <= 1
 edge1005: x[66] + x[117] <= 1
 edge1006: x[66] + x[119] <= 1
 edge1007: x[66] + x[122] <= 1
 edge1008: x[66] + x[90] <= 1
 edge1009: x[150] + x[106] <= 1
 edge1010: x[150] + x[128] <= 1
 edge1011: x[39] + x[20] <= 1
 edge1012: x[39] + x[29] <= 1
 edge1013: x[39] + x[132] <= 1
 edge1014: x[39] + x[41] <= 1
 edge1015: x[39] + x[85] <= 1
 edge1016: x[39] + x[60] <= 1
 edge1017: x[79] + x[40] <= 1
 edge1018: x[79] + x[110] <= 1
 edge1019: x[79] + x[86] <= 1
 edge1020: x[79] + x[119] <= 1
 edge1021: x[79] + x[85] <= 1
 edge1022: x[79] + x[117] <= 1
 edge1023: x[144] + x[85] <= 1
 edge1024: x[144] + x[90] <= 1
 edge1025: x[144] + x[115] <= 1
 edge1026: x[144] + x[119] <= 1
 edge1027: x[144] + x[138] <= 1
 edge1028: x[144] + x[143] <= 1
 edge1029: x[115] + x[67] <= 1
 edge1030: x[115] + x[81] <= 1
 edge1031: x[115] + x[149] <= 1
 edge1032: x[119] + x[40] <= 1
 edge1033: x[119] + x[51] <= 1
 edge1034: x[119] + x[59] <= 1
 edge1035: x[119] + x[88] <= 1
 edge1036: x[119] + x[96] <= 1
 edge1037: x[119] + x[100] <= 1
 edge1038: x[119] + x[131] <= 1
 edge1039: x[119] + x[148] <= 1
 edge1040: x[122] + x[24] <= 1
 edge1041: x[122] + x[81] <= 1
 edge1042: x[122] + x[85] <= 1
 edge1043: x[100] + x[24] <= 1
 edge1044: x[100] + x[38] <= 1
 edge1045: x[100] + x[88] <= 1
 edge1046: x[100] + x[129] <= 1
 edge1047: x[100] + x[136] <= 1
 edge1048: x[100] + x[147] <= 1
 edge1049: x[100] + x[120] <= 1
 edge1050: x[110] + x[36] <= 1
 edge1051: x[110] + x[52] <= 1
 edge1052: x[110] + x[63] <= 1
 edge1053: x[110] + x[71] <= 1
 edge1054: x[110] + x[86] <= 1
 edge1055: x[110] + x[88] <= 1
 edge1056: x[110] + x[131] <= 1
 edge1057: x[110] + x[145] <= 1
 edge1058: x[110] + x[120] <= 1
 edge1059: x[145] + x[24] <= 1
 edge1060: x[145] + x[136] <= 1
 edge1061: x[145] + x[143] <= 1
 edge1062: x[145] + x[149] <= 1
 edge1063: x[83] + x[17] <= 1
 edge1064: x[83] + x[27] <= 1
 edge1065: x[83] + x[29] <= 1
 edge1066: x[83] + x[36] <= 1
 edge1067: x[83] + x[136] <= 1
 edge1068: x[83] + x[138] <= 1
 edge1069: x[83] + x[121] <= 1
 edge1070: x[60] + x[41] <= 1
 edge1071: x[60] + x[51] <= 1
 edge1072: x[60] + x[52] <= 1
 edge1073: x[60] + x[68] <= 1
 edge1074: x[60] + x[136] <= 1
 edge1075: x[60] + x[85] <= 1
 edge1076: x[36] + x[24] <= 1
 edge1077: x[36] + x[27] <= 1
 edge1078: x[36] + x[106] <= 1
 edge1079: x[36] + x[88] <= 1
 edge1080: x[36] + x[117] <= 1
 edge1081: x[17] + x[76] <= 1
 edge1082: x[20] + x[34] <= 1
 edge1083: x[20] + x[136] <= 1
 edge1084: x[20] + x[71] <= 1
 edge1085: x[88] + x[63] <= 1
 edge1086: x[106] + x[34] <= 1
 edge1087: x[106] + x[68] <= 1
 edge1088: x[106] + x[90] <= 1
 edge1089: x[120] + x[16] <= 1
 edge1090: x[120] + x[34] <= 1
 edge1091: x[120] + x[86] <= 1
 edge1092: x[59] + x[27] <= 1
 edge1093: x[59] + x[29] <= 1
 edge1094: x[59] + x[96] <= 1
 edge1095: x[59] + x[143] <= 1
 edge1096: x[16] + x[68] <= 1
 edge1097: x[16] + x[129] <= 1
 edge1098: x[16] + x[76] <= 1
 edge1099: x[16] + x[86] <= 1
 edge1100: x[16] + x[27] <= 1
 edge1101: x[16] + x[138] <= 1
 edge1102: x[68] + x[29] <= 1
 edge1103: x[68] + x[34] <= 1
 edge1104: x[68] + x[67] <= 1
 edge1105: x[68] + x[129] <= 1
 edge1106: x[68] + x[71] <= 1
 edge1107: x[68] + x[143] <= 1
 edge1108: x[129] + x[27] <= 1
 edge1109: x[76] + x[29] <= 1
 edge1110: x[76] + x[41] <= 1
 edge1111: x[76] + x[52] <= 1
 edge1112: x[76] + x[132] <= 1
 edge1113: x[76] + x[136] <= 1
 edge1114: x[76] + x[85] <= 1
 edge1115: x[76] + x[117] <= 1
 edge1116: x[86] + x[71] <= 1
 edge1117: x[86] + x[128] <= 1
 edge1118: x[86] + x[131] <= 1
 edge1119: x[86] + x[138] <= 1
 edge1120: x[27] + x[24] <= 1
 edge1121: x[27] + x[67] <= 1
 edge1122: x[27] + x[136] <= 1
 edge1123: x[138] + x[40] <= 1
 edge1124: x[138] + x[71] <= 1
 edge1125: x[138] + x[85] <= 1
 edge1126: x[138] + x[121] <= 1
 edge1127: x[63] + x[34] <= 1
 edge1128: x[63] + x[131] <= 1
 edge1129: x[121] + x[131] <= 1
 edge1130: x[121] + x[147] <= 1
 edge1131: x[143] + x[90] <= 1
 edge1132: x[143] + x[117] <= 1
 edge1133: x[143] + x[136] <= 1
 edge1134: x[81] + x[34] <= 1
 edge1135: x[81] + x[67] <= 1
 edge1136: x[81] + x[96] <= 1
 edge1137: x[81] + x[147] <= 1
 edge1138: x[24] + x[41] <= 1
 edge1139: x[24] + x[148] <= 1
 edge1140: x[117] + x[149] <= 1
 edge1141: x[52] + x[38] <= 1
 edge1142: x[52] + x[67] <= 1
 edge1143: x[52] + x[149] <= 1
 edge1144: x[34] + x[128] <= 1
 edge1145: x[34] + x[132] <= 1
 edge1146: x[136] + x[147] <= 1
 edge1147: x[71] + x[51] <= 1
 edge1148: x[71] + x[147] <= 1
 edge1149: x[96] + x[90] <= 1
 edge1150: x[96] + x[148] <= 1
 edge1151: x[40] + x[85] <= 1
 edge1152: x[29] + x[149] <= 1
 edge1153: x[85] + x[67] <= 1
 edge1154: x[147] + x[131] <= 1
 edge1155: x[67] + x[131] <= 1
Bounds
Binaries
 x[1] x[133] x[102] x[93] x[73] x[10] x[11] x[142] x[15] x[114] x[74] x[21]
 x[22] x[58] x[127] x[28] x[125] x[126] x[37] x[2] x[33] x[35] x[4] x[5]
 x[135] x[141] x[111] x[113] x[116] x[57] x[91] x[92] x[134] x[3] x[32]
 x[70] x[80] x[9] x[42] x[112] x[84] x[30] x[56] x[94] x[64] x[75] x[130]
 x[25] x[124] x[98] x[99] x[101] x[146] x[104] x[105] x[140] x[77] x[49]
 x[18] x[123] x[53] x[89] x[47] x[62] x[6] x[103] x[108] x[13] x[14] x[45]
 x[48] x[95] x[7] x[65] x[72] x[43] x[61] x[8] x[137] x[139] x[82] x[54]
 x[55] x[31] x[69] x[44] x[50] x[118] x[87] x[26] x[97] x[23] x[107] x[109]
 x[46] x[19] x[78] x[12] x[66] x[150] x[39] x[79] x[144] x[115] x[119]
 x[122] x[100] x[110] x[145] x[83] x[60] x[36] x[17] x[20] x[88] x[106]
 x[120] x[59] x[16] x[68] x[129] x[76] x[86] x[27] x[138] x[63] x[121]
 x[143] x[81] x[24] x[117] x[52] x[34] x[136] x[71] x[96] x[148] x[40]
 x[29] x[85] x[41] x[128] x[147] x[67] x[149] x[90] x[132] x[38] x[51]
 x[131]
End
